c Random generated cnf formula, satisfiable: true
p cnf 10 50
5 -1 10 0
6 -7 -10 0
-9 -1 6 0
10 1 2 0
7 -4 9 0
-7 -3 4 0
2 3 -7 0
-5 -9 -6 0
-3 -6 8 0
-3 -6 -10 0
-7 -5 10 0
9 -8 -10 0
-4 -6 -1 0
-3 1 -7 0
-1 -10 -6 0
-6 -2 -10 0
2 3 -8 0
-2 1 -4 0
-5 -9 -10 0
5 -1 -8 0
-2 -9 -3 0
-4 10 6 0
10 1 5 0
-10 -6 2 0
-1 -5 7 0
-3 -10 9 0
-7 -8 9 0
-7 3 4 0
8 2 -3 0
9 -1 6 0
-9 -1 -7 0
10 -7 -1 0
-2 -10 -7 0
10 1 2 0
-3 2 -5 0
-7 -2 -8 0
9 4 7 0
10 9 -7 0
-5 -3 8 0
-1 10 -4 0
6 -2 9 0
-1 3 5 0
3 -9 1 0
10 1 2 0
-6 4 7 0
9 -10 5 0
-2 5 1 0
4 3 -10 0
-7 5 10 0
-10 3 1 0
